0 3549
1 627
2 410
3 392
4 347
5 308
6 294
7 288
8 288
9 288
10 284
11 284
12 284
13 284
14 284
15 284
16 284
17 283
18 283
19 283
20 283
21 283
22 283
23 283
24 282
25 282
26 279
27 279
28 279
29 279
30 279
31 279
32 279
33 279
34 279
35 279
36 279
37 279
38 279
39 279
40 279
41 279
42 279
43 279
44 279
45 279
46 279
47 279
48 279
49 279
50 279
51 279
52 279
53 279
54 279
55 279
56 279
57 279
58 279
59 279
60 279
61 279
62 279
63 279
64 279
65 279
66 279
67 279
68 279
69 279
70 279
71 279
72 279
73 279
74 279
75 279
76 279
77 279
78 279
79 279
80 279
81 279
82 279
83 279
84 279
85 279
86 279
87 279
88 279
89 279
90 279
91 279
92 279
93 279
94 279
95 279
96 279
97 278
98 278
99 278
100 278
101 278
102 278
103 278
104 278
105 278
106 278
107 278
108 278
109 278
110 278
111 278
112 278
113 278
114 278
115 278
116 278
117 278
118 278
119 278
120 278
121 278
122 278
123 278
124 278
125 278
126 278
127 278
128 278
129 278
130 278
131 278
132 278
133 278
134 278
135 278
136 278
137 278
138 278
139 278
140 276
141 276
142 276
143 276
144 276
145 276
146 276
147 276
148 276
149 276
150 276
151 276
152 276
153 276
154 276
155 276
156 276
157 276
158 276
159 276
160 276
161 276
162 276
163 276
164 276
165 276
166 276
167 276
168 276
169 276
170 276
171 276
172 276
173 276
174 276
175 276
176 276
177 276
178 276
179 276
180 276
181 276
182 276
183 276
184 276
185 276
186 276
187 276
188 276
189 276
190 276
191 276
192 276
193 276
194 276
195 276
196 276
197 276
198 276
199 276
200 276
201 276
202 276
203 276
204 276
205 276
206 276
207 276
208 276
209 276
210 276
211 276
212 276
213 276
214 276
215 276
216 276
217 276
218 276
219 276
220 276
221 276
222 276
223 276
224 276
225 276
226 276
227 276
228 276
229 276
230 275
231 275
232 275
233 275
234 275
235 275
236 275
237 275
238 275
239 275
240 275
241 275
242 275
243 275
244 275
245 275
246 275
247 275
248 275
249 275
250 275
251 275
252 275
253 275
254 275
255 275
256 275
257 275
258 275
259 275
260 275
261 275
262 275
263 275
264 275
265 275
266 275
267 275
268 275
269 275
270 275
271 275
272 275
273 275
274 275
275 275
276 275
277 275
278 275
279 275
280 275
281 275
282 275
283 275
284 275
285 275
286 275
287 275
288 275
289 275
290 275
291 275
292 275
293 275
294 275
295 275
296 275
297 275
298 275
299 275
300 275
301 275
302 275
303 275
304 275
305 275
306 275
307 275
308 275
309 275
310 275
311 275
312 275
313 275
314 275
315 275
316 275
317 275
318 275
319 275
320 275
321 275
322 275
323 275
324 275
325 275
326 275
327 275
328 275
329 275
330 275
331 275
332 275
333 275
334 275
335 275
336 275
337 275
338 275
339 275
340 275
341 275
342 275
343 275
344 275
345 275
346 275
347 275
348 275
349 275
350 275
351 275
352 275
353 275
354 275
355 275
356 275
357 275
358 275
359 275
360 275
361 275
362 275
363 275
364 275
365 275
366 275
367 275
368 275
369 275
370 275
371 275
372 275
373 275
374 275
375 275
376 275
377 275
378 275
379 275
380 275
381 275
382 275
383 275
384 275
385 275
386 275
387 275
388 275
389 275
390 275
391 275
392 275
393 275
394 275
395 275
396 275
397 275
398 275
399 275
400 275
401 275
402 275
403 275
404 275
405 275
406 275
407 275
408 275
409 275
410 275
411 275
412 275
413 275
414 275
415 275
416 275
417 275
418 275
419 275
420 275
421 275
422 275
423 275
424 275
425 275
426 275
427 275
428 275
429 275
430 275
431 275
432 275
433 275
434 275
435 275
436 275
437 275
438 275
439 275
440 275
441 275
442 275
443 275
444 275
445 275
446 275
447 275
448 275
449 275
450 275
451 275
452 275
453 275
454 275
455 275
456 275
457 275
458 275
459 275
460 275
461 275
462 275
463 275
464 275
465 275
466 275
467 275
468 275
469 275
470 275
471 275
472 275
473 275
474 275
475 275
476 275
477 275
478 275
479 275
480 275
481 275
482 275
483 275
484 275
485 275
486 275
487 275
488 275
489 275
490 275
491 275
492 275
493 275
494 275
495 275
496 275
497 275
498 275
499 275
500 275
501 275
502 275
503 275
504 275
505 275
506 275
507 275
508 275
509 275
510 275
511 275
512 275
513 275
514 275
515 275
516 275
517 275
518 275
519 275
520 275
521 275
522 275
523 275
524 275
525 275
526 275
527 275
528 275
529 275
530 275
531 275
532 275
533 275
534 275
535 275
536 275
537 275
538 275
539 275
540 275
541 275
542 275
543 275
544 275
545 275
546 275
547 275
548 275
549 275
550 275
551 275
552 275
553 275
554 275
555 275
556 275
557 275
558 275
559 275
560 275
561 275
562 275
563 275
564 275
565 275
566 275
567 275
568 275
569 275
570 275
571 275
572 275
573 275
574 275
575 275
576 275
577 275
578 275
579 275
580 275
581 275
582 275
583 275
584 275
585 275
586 275
587 275
588 275
589 275
590 275
591 275
592 275
593 275
594 275
595 275
596 275
597 275
598 275
599 275
600 275
601 275
602 275
603 275
604 275
605 275
606 275
607 275
608 275
609 275
610 275
611 275
612 275
613 275
614 275
615 275
616 275
617 275
618 275
619 275
620 275
621 275
622 275
623 275
624 275
625 275
626 275
627 275
628 275
629 275
630 275
631 275
632 275
633 275
634 275
635 275
636 275
637 275
638 275
639 275
640 275
641 275
642 275
643 275
644 275
645 275
646 275
647 275
648 275
649 275
650 275
651 275
652 275
653 275
654 275
655 275
656 275
657 275
658 275
659 275
660 275
661 275
662 275
663 275
664 275
665 275
666 275
667 275
668 275
669 275
670 275
671 275
672 275
673 275
674 275
675 275
676 275
677 275
678 275
679 275
680 275
681 275
682 275
683 275
684 275
685 275
686 275
687 275
688 275
689 275
690 275
691 275
692 275
693 275
694 275
695 275
696 275
697 275
698 275
699 275
700 275
701 275
702 275
703 275
704 275
705 275
706 275
707 275
708 275
709 275
710 275
711 275
712 275
713 275
714 275
715 275
716 275
717 275
718 275
719 275
720 275
721 275
722 275
723 275
724 275
725 275
726 275
727 275
728 275
729 275
730 275
731 275
732 275
733 275
734 275
735 275
736 275
737 275
738 275
739 275
740 275
741 275
742 275
743 275
744 275
745 275
746 275
747 275
748 275
749 275
750 275
751 275
752 275
753 275
754 275
755 275
756 275
757 275
758 275
759 275
760 275
761 275
762 275
763 275
764 275
765 275
766 275
767 275
768 275
769 275
770 275
771 275
772 275
773 275
774 275
775 275
776 275
777 275
778 275
779 275
780 275
781 275
782 275
783 275
784 275
785 275
786 275
787 275
788 275
789 275
790 275
791 275
792 275
793 275
794 275
795 275
796 275
797 275
798 275
799 275
800 275
801 275
802 275
803 275
804 275
805 275
806 275
807 275
808 275
809 275
810 275
811 275
812 275
813 275
814 275
815 275
816 275
817 275
818 275
819 275
820 275
821 275
822 275
823 275
824 275
825 275
826 275
827 275
828 275
829 275
830 275
831 275
832 275
833 275
834 275
835 275
836 275
837 275
838 275
839 275
840 275
841 275
842 275
843 275
844 275
845 275
846 275
847 275
848 275
849 275
850 275
851 275
852 275
853 275
854 275
855 275
856 275
857 275
858 275
859 275
860 275
861 275
862 275
863 275
864 275
865 275
866 275
867 275
868 275
869 275
870 275
871 275
872 275
873 275
874 275
875 275
876 275
877 275
878 275
879 275
880 275
881 275
882 275
883 275
884 275
885 275
886 275
887 275
888 275
889 275
890 275
891 275
892 275
893 275
894 275
895 275
896 275
897 275
898 275
899 275
900 275
901 275
902 275
903 275
904 275
905 275
906 275
907 275
908 275
909 275
910 275
911 275
912 275
913 275
914 275
915 275
916 275
917 275
918 275
919 275
920 275
921 275
922 275
923 275
924 275
925 275
926 275
927 275
928 275
929 275
930 275
931 275
932 275
933 275
934 275
935 275
936 275
937 275
938 275
939 275
940 275
941 275
942 275
943 275
944 275
945 275
946 275
947 275
948 275
949 275
950 275
951 275
952 275
953 275
954 275
955 275
956 275
957 275
958 275
959 275
960 275
961 275
962 275
963 275
964 275
965 275
966 275
967 275
968 275
969 275
970 275
971 275
972 275
973 275
974 275
975 275
976 275
977 275
978 275
979 275
980 275
981 275
982 275
983 275
984 275
985 275
986 275
987 275
988 275
989 275
990 275
991 275
992 275
993 275
994 275
995 275
996 275
997 275
998 275
999 275
